50
14563

280 734
169 270
444 975
894 759
506 628
250 458
389 330
205 32
723 552
321 157
74 190
238 591
746 389
814 621
810 37
624 643
159 216
90 291
31 115
102 327
454 591
874 510
240 74
742 866
754 91
969 672
970 81
656 793
212 712
604 459
634 11
180 74
599 524
656 291
821 166
858 468
568 344
415 14
441 402
936 585
187 233
419 200
845 485
982 143
788 321
324 740
979 248
597 818
502 545
625 532
